cost: 795.79
Route 1:           0    6   37   19   25   49    1    0
Route 2:           0   20   10   47   32   31   26   17    0
Route 3:           0   23   41   13   12    2   15    0
Route 4:           0   24   30    8    7   21   14    0
Route 5:           0   28   27   34    4    0
Route 6:           0   44   18   35    0
Route 7:           0   36   50   39   48   33    5   46    0
Route 8:           0   40   29   11   43    9    0
Route 9:           0   42   22    3   45   38   16    0
